Example_III/other_models/71/model_71_Log_80_cores.log

Gurobi 9.0.2 (linux64) logging started Mon Sep 14 06:52:21 2020

Changed value of parameter LogFile to model_71_Log_80_cores.log
   Prev:   Default: 
Changed value of parameter Threads to 80
   Prev: 0  Min: 0  Max: 1024  Default: 0
Gurobi Optimizer version 9.0.2 build v9.0.2rc0 (linux64)
Optimize a model with 10752 rows, 38880 columns and 175090 nonzeros
Model fingerprint: 0x2556bfd7
Variable types: 0 continuous, 38880 integer (38880 binary)
Coefficient statistics:
  Matrix range     [1e+00, 6e+01]
  Objective range  [1e+00, 1e+00]
  Bounds range     [1e+00, 1e+00]
  RHS range        [1e+00, 3e+02]
Presolve removed 728 rows and 1770 columns
Presolve time: 0.32s
Presolved: 10024 rows, 37110 columns, 161616 nonzeros
Variable types: 0 continuous, 37110 integer (37110 binary)

Deterministic concurrent LP optimizer: primal and dual simplex
Showing first log only...

Concurrent spin time: 0.03s

Solved with primal simplex

Root relaxation: objective 1.000000e+00, 3868 iterations, 0.14 seconds

    Nodes    |    Current Node    |     Objective Bounds      |     Work
 Expl Unexpl |  Obj  Depth IntInf | Incumbent    BestBd   Gap | It/Node Time

     0     0    1.00000    0  223          -    1.00000      -     -    1s
     0     0    1.00000    0  402          -    1.00000      -     -    2s
     0     0    1.00000    0  380          -    1.00000      -     -    2s
     0     0    1.00000    0  230          -    1.00000      -     -    4s
     0     0    1.00000    0  248          -    1.00000      -     -    4s
     0     0    1.00000    0  215          -    1.00000      -     -    6s
     0     0    1.00000    0  324          -    1.00000      -     -    6s
     0     0    1.00000    0  200          -    1.00000      -     -    7s
     0     0 1.000e+100    0  278          - infeasible      -     -    8s

Cutting planes:
  Gomory: 5
  Cover: 107
  Clique: 10
  MIR: 55
  StrongCG: 8
  Inf proof: 3
  Zero half: 5
  RLT: 18

Explored 1 nodes (172207 simplex iterations) in 8.19 seconds
Thread count was 80 (of 80 available processors)

Solution count 0

Model is infeasible
Best objective -, best bound -, gap -
